Version identifier: 20.1.0.0 | 2020-11-10 | 9bedb6d68
Tried aggregator 2 times.
MIP Presolve eliminated 1675 rows and 898 columns.
MIP Presolve modified 3400 coefficients.
Aggregator did 187 substitutions.
Reduced MIP has 1544 rows, 1322 columns, and 4925 nonzeros.
Reduced MIP has 389 binaries, 933 generals, 0 SOSs, and 0 indicators.
Presolve time = 0.02 sec. (7.60 ticks)
Found incumbent of value 61.000000 after 0.03 sec. (13.19 ticks)
Probing fixed 40 vars, tightened 281 bounds.
Probing time = 0.00 sec. (1.82 ticks)
Tried aggregator 1 time.
Detecting symmetries...
MIP Presolve eliminated 600 rows and 40 columns.
MIP Presolve modified 105 coefficients.
Reduced MIP has 944 rows, 1282 columns, and 3085 nonzeros.
Reduced MIP has 508 binaries, 774 generals, 0 SOSs, and 0 indicators.
Presolve time = 0.01 sec. (3.86 ticks)
Probing time = 0.00 sec. (0.27 ticks)
Clique table members: 81.
MIP emphasis: balance optimality and feasibility.
MIP search method: dynamic search.
Parallel mode: deterministic, using up to 24 threads.
Root relaxation solution time = 0.01 sec. (2.98 ticks)

        Nodes                                         Cuts/
   Node  Left     Objective  IInf  Best Integer    Best Bound    ItCnt     Gap

*     0+    0                           61.0000        0.0000           100.00%
      0     0        0.0000    62       61.0000        0.0000      241  100.00%
      0     0        1.1000   213       61.0000     Cuts: 182      600   98.20%
      0     0        1.5714   134       61.0000     Cuts: 154      746   97.42%
*     0+    0                            9.0000        1.5714            82.54%
      0     0        2.0000   153        9.0000      Cuts: 57      826   77.78%
      0     0        2.0000   194        9.0000      Cuts: 79      938   77.78%
*     0+    0                            8.0000        2.0000            75.00%
      0     0        cutoff              8.0000        8.0000     1061    0.00%
Elapsed time = 0.27 sec. (100.36 ticks, tree = 0.01 MB, solutions = 3)

Cover cuts applied:  4
Implied bound cuts applied:  32
Mixed integer rounding cuts applied:  35
Zero-half cuts applied:  125
Lift and project cuts applied:  1
Gomory fractional cuts applied:  20

Root node processing (before b&c):
  Real time             =    0.27 sec. (100.48 ticks)
Parallel b&c, 24 threads:
  Real time             =    0.00 sec. (0.00 ticks)
  Sync time (average)   =    0.00 sec.
  Wait time (average)   =    0.00 sec.
                          ------------
Total (root+branch&cut) =    0.27 sec. (100.48 ticks)

Solution status = Optimal
Solution LB = 8
Solution UB = 8
Runtime = 0.281563 seconds
	Command being timed: "/home/min/git_repos/CS598MEBProject/CNT-ILP/build/cnt -s 2 ./output/k6_n40/simC_c1_k6_n40_u1_s1_del02.input-left.cnp"
	User time (seconds): 3.42
	System time (seconds): 0.09
	Percent of CPU this job got: 1145%
	Elapsed (wall clock) time (h:mm:ss or m:ss): 0:00.30
	Average shared text size (kbytes): 0
	Average unshared data size (kbytes): 0
	Average stack size (kbytes): 0
	Average total size (kbytes): 0
	Maximum resident set size (kbytes): 98152
	Average resident set size (kbytes): 0
	Major (requiring I/O) page faults: 0
	Minor (reclaiming a frame) page faults: 22096
	Voluntary context switches: 5002
	Involuntary context switches: 394
	Swaps: 0
	File system inputs: 0
	File system outputs: 16
	Socket messages sent: 0
	Socket messages received: 0
	Signals delivered: 0
	Page size (bytes): 4096
	Exit status: 0
